c colouring generated by benchmark framework
p edge 676 1300
v 1 1
v 2 0
v 3 1
v 4 0
v 5 1
v 6 0
v 7 1
v 8 0
v 9 1
v 10 0
v 11 1
v 12 0
v 13 1
v 14 0
v 15 1
v 16 0
v 17 2
v 18 1
v 19 0
v 20 1
v 21 0
v 22 1
v 23 0
v 24 1
v 25 0
v 26 1
v 27 0
v 28 1
v 29 0
v 30 1
v 31 0
v 32 1
v 33 0
v 34 1
v 35 0
v 36 1
v 37 0
v 38 1
v 39 0
v 40 1
v 41 0
v 42 2
v 43 1
v 44 0
v 45 1
v 46 0
v 47 1
v 48 0
v 49 1
v 50 0
v 51 1
v 52 0
v 53 1
v 54 0
v 55 1
v 56 0
v 57 1
v 58 0
v 59 1
v 60 0
v 61 1
v 62 2
v 63 3
v 64 2
v 65 3
v 66 2
v 67 3
v 68 1
v 69 0
v 70 1
v 71 0
v 72 1
v 73 0
v 74 1
v 75 0
v 76 1
v 77 0
v 78 1
v 79 0
v 80 1
v 81 0
v 82 1
v 83 0
v 84 1
v 85 0
v 86 3
v 87 2
v 88 0
v 89 1
v 90 0
v 91 1
v 92 0
v 93 1
v 94 0
v 95 1
v 96 0
v 97 1
v 98 0
v 99 1
v 100 0
v 101 1
v 102 0
v 103 1
v 104 0
v 105 1
v 106 0
v 107 1
v 108 0
v 109 1
v 110 0
v 111 2
v 112 1
v 113 0
v 114 1
v 115 0
v 116 1
v 117 0
v 118 1
v 119 0
v 120 1
v 121 0
v 122 1
v 123 0
v 124 1
v 125 0
v 126 1
v 127 0
v 128 1
v 129 0
v 130 1
v 131 0
v 132 1
v 133 0
v 134 1
v 135 0
v 136 1
v 137 0
v 138 2
v 139 1
v 140 0
v 141 1
v 142 0
v 143 1
v 144 0
v 145 1
v 146 0
v 147 1
v 148 0
v 149 1
v 150 0
v 151 1
v 152 0
v 153 1
v 154 0
v 155 1
v 156 0
v 157 1
v 158 0
v 159 1
v 160 0
v 161 1
v 162 0
v 163 1
v 164 0
v 165 2
v 166 1
v 167 2
v 168 3
v 169 2
v 170 3
v 171 2
v 172 3
v 173 2
v 174 1
v 175 0
v 176 1
v 177 0
v 178 1
v 179 0
v 180 1
v 181 0
v 182 1
v 183 0
v 184 1
v 185 0
v 186 1
v 187 0
v 188 1
v 189 0
v 190 1
v 191 0
v 192 2
v 193 0
v 194 1
v 195 0
v 196 1
v 197 0
v 198 1
v 199 0
v 200 2
v 201 3
v 202 2
v 203 3
v 204 2
v 205 3
v 206 2
v 207 3
v 208 0
v 209 1
v 210 0
v 211 1
v 212 0
v 213 1
v 214 0
v 215 1
v 216 3
v 217 2
v 218 1
v 219 2
v 220 3
v 221 2
v 222 3
v 223 1
v 224 0
v 225 1
v 226 0
v 227 1
v 228 0
v 229 1
v 230 0
v 231 1
v 232 0
v 233 1
v 234 2
v 235 0
v 236 1
v 237 0
v 238 1
v 239 0
v 240 1
v 241 2
v 242 0
v 243 1
v 244 0
v 245 1
v 246 0
v 247 1
v 248 0
v 249 2
v 250 1
v 251 0
v 252 1
v 253 0
v 254 1
v 255 0
v 256 1
v 257 0
v 258 1
v 259 0
v 260 1
v 261 1
v 262 0
v 263 1
v 264 0
v 265 1
v 266 0
v 267 1
v 268 2
v 269 0
v 270 2
v 271 3
v 272 2
v 273 3
v 274 2
v 275 1
v 276 0
v 277 1
v 278 2
v 279 3
v 280 2
v 281 3
v 282 2
v 283 4
v 284 3
v 285 2
v 286 0
v 287 0
v 288 2
v 289 3
v 290 2
v 291 3
v 292 4
v 293 2
v 294 0
v 295 2
v 296 1
v 297 0
v 298 1
v 299 0
v 300 1
v 301 0
v 302 1
v 303 2
v 304 0
v 305 1
v 306 0
v 307 1
v 308 0
v 309 1
v 310 0
v 311 1
v 312 2
v 313 2
v 314 1
v 315 0
v 316 1
v 317 0
v 318 1
v 319 0
v 320 2
v 321 1
v 322 0
v 323 1
v 324 0
v 325 1
v 326 0
v 327 1
v 328 0
v 329 1
v 330 2
v 331 0
v 332 1
v 333 0
v 334 1
v 335 0
v 336 1
v 337 0
v 338 1
v 339 1
v 340 0
v 341 1
v 342 0
v 343 1
v 344 0
v 345 1
v 346 0
v 347 2
v 348 1
v 349 0
v 350 1
v 351 0
v 352 1
v 353 0
v 354 1
v 355 0
v 356 1
v 357 2
v 358 0
v 359 1
v 360 0
v 361 1
v 362 0
v 363 1
v 364 0
v 365 0
v 366 1
v 367 0
v 368 1
v 369 0
v 370 1
v 371 0
v 372 2
v 373 1
v 374 0
v 375 1
v 376 0
v 377 1
v 378 0
v 379 1
v 380 0
v 381 1
v 382 2
v 383 0
v 384 1
v 385 0
v 386 1
v 387 0
v 388 1
v 389 0
v 390 1
v 391 1
v 392 0
v 393 1
v 394 0
v 395 1
v 396 0
v 397 2
v 398 1
v 399 0
v 400 1
v 401 0
v 402 1
v 403 0
v 404 1
v 405 0
v 406 1
v 407 2
v 408 0
v 409 1
v 410 0
v 411 1
v 412 0
v 413 1
v 414 0
v 415 1
v 416 0
v 417 0
v 418 1
v 419 0
v 420 1
v 421 0
v 422 1
v 423 0
v 424 2
v 425 3
v 426 4
v 427 2
v 428 3
v 429 1
v 430 0
v 431 1
v 432 0
v 433 1
v 434 2
v 435 0
v 436 1
v 437 0
v 438 1
v 439 0
v 440 1
v 441 0
v 442 1
v 443 1
v 444 0
v 445 1
v 446 0
v 447 1
v 448 0
v 449 1
v 450 0
v 451 1
v 452 0
v 453 1
v 454 0
v 455 2
v 456 3
v 457 0
v 458 1
v 459 0
v 460 1
v 461 2
v 462 3
v 463 2
v 464 3
v 465 2
v 466 3
v 467 2
v 468 3
v 469 0
v 470 1
v 471 0
v 472 1
v 473 0
v 474 1
v 475 0
v 476 1
v 477 0
v 478 1
v 479 0
v 480 1
v 481 0
v 482 1
v 483 2
v 484 0
v 485 1
v 486 0
v 487 1
v 488 0
v 489 1
v 490 0
v 491 1
v 492 0
v 493 1
v 494 0
v 495 1
v 496 0
v 497 1
v 498 0
v 499 1
v 500 0
v 501 1
v 502 0
v 503 1
v 504 0
v 505 1
v 506 0
v 507 1
v 508 2
v 509 0
v 510 1
v 511 0
v 512 1
v 513 0
v 514 1
v 515 0
v 516 1
v 517 0
v 518 1
v 519 0
v 520 1
v 521 0
v 522 1
v 523 0
v 524 1
v 525 0
v 526 1
v 527 0
v 528 1
v 529 0
v 530 1
v 531 0
v 532 1
v 533 2
v 534 0
v 535 1
v 536 0
v 537 1
v 538 0
v 539 1
v 540 0
v 541 1
v 542 0
v 543 1
v 544 0
v 545 1
v 546 0
v 547 1
v 548 0
v 549 1
v 550 0
v 551 1
v 552 0
v 553 1
v 554 0
v 555 1
v 556 0
v 557 1
v 558 2
v 559 0
v 560 1
v 561 0
v 562 1
v 563 0
v 564 1
v 565 0
v 566 1
v 567 0
v 568 1
v 569 2
v 570 3
v 571 2
v 572 3
v 573 0
v 574 2
v 575 3
v 576 4
v 577 2
v 578 1
v 579 0
v 580 1
v 581 0
v 582 1
v 583 0
v 584 1
v 585 2
v 586 0
v 587 1
v 588 0
v 589 1
v 590 0
v 591 2
v 592 3
v 593 2
v 594 3
v 595 0
v 596 1
v 597 0
v 598 1
v 599 2
v 600 1
v 601 0
v 602 1
v 603 0
v 604 2
v 605 1
v 606 0
v 607 1
v 608 0
v 609 1
v 610 0
v 611 1
v 612 2
v 613 0
v 614 1
v 615 0
v 616 2
v 617 1
v 618 0
v 619 1
v 620 0
v 621 1
v 622 0
v 623 1
v 624 0
v 625 1
v 626 0
v 627 1
v 628 0
v 629 2
v 630 1
v 631 0
v 632 1
v 633 0
v 634 1
v 635 0
v 636 1
v 637 0
v 638 3
v 639 1
v 640 0
v 641 1
v 642 0
v 643 2
v 644 1
v 645 0
v 646 1
v 647 0
v 648 1
v 649 0
v 650 1
v 651 0
v 652 1
v 653 0
v 654 2
v 655 1
v 656 0
v 657 1
v 658 0
v 659 1
v 660 0
v 661 1
v 662 0
v 663 1
v 664 0
v 665 2
v 666 1
v 667 0
v 668 1
v 669 0
v 670 2
v 671 1
v 672 0
v 673 1
v 674 0
v 675 1
v 676 0
